p tw 43 121
5 14
5 15
5 16
5 8
5 19
5 13
10 20
10 13
14 17
14 18
14 19
1 13
1 16
1 6
1 7
6 13
6 17
6 12
6 16
9 41
9 16
9 13
9 17
9 19
2 8
2 13
2 16
2 43
2 9
2 15
12 14
8 42
8 14
8 9
8 11
4 15
4 11
4 6
4 20
4 14
15 16
15 17
15 18
15 19
15 20
24 32
24 25
24 42
24 33
24 37
24 29
24 34
37 41
25 39
25 35
25 40
29 34
29 35
29 43
21 29
21 27
21 35
21 28
33 38
33 40
33 36
28 37
28 33
28 36
13 17
13 19
17 20
32 37
32 38
32 35
32 40
34 35
34 40
34 36
22 30
22 31
22 37
22 40
22 43
27 34
27 40
27 37
27 33
27 28
7 17
7 16
7 19
7 11
7 12
7 8
3 18
3 11
3 16
3 41
35 39
35 40
16 42
31 39
31 35
31 40
11 12
11 43
26 41
26 34
26 42
26 28
26 40
26 39
26 32
23 38
23 32
30 37
30 40
30 38
30 36
30 39
